presolving:
(round 1, fast)       0 del vars, 0 del conss, 0 add conss, 64000 chg bounds, 0 chg sides, 0 chg coeffs, 0 upgd conss, 0 impls, 0 clqs
   (0.3s) running MILP presolver
   (0.3s) MILP presolver found nothing
   (0.5s) probing cycle finished: starting next cycle
   (0.6s) symmetry computation started: requiring (bin +, int -, cont +), (fixed: bin -, int +, cont -)
   (0.6s) no symmetry present
presolving (2 rounds: 2 fast, 1 medium, 1 exhaustive):
 0 deleted vars, 0 deleted constraints, 0 added constraints, 64000 tightened bounds, 0 added holes, 0 changed sides, 0 changed coefficients
 32000 implications, 0 cliques
presolved problem has 32050 variables (50 bin, 0 int, 0 impl, 32000 cont) and 3274 constraints
   3274 constraints of type <linear>
Presolving Time: 0.55

 time | node  | left  |LP iter|LP it/n|mem/heur|mdpt |vars |cons |rows |cuts |sepa|confs|strbr|  dualbound   | primalbound  |  gap   | compl. 
p 0.8s|     1 |     0 |   315 |     - |shiftand|   0 |  32k|3276 |3274 |   0 |  0 |   2 |   0 | 0.000000e+00 | 2.256470e+06 |    Inf | unknown
  5.0s|     1 |     0 |  7358 |     - |   232M |   0 |  32k|3276 |3274 |   0 |  0 |   2 |   0 | 1.477841e+06 | 2.256470e+06 |  52.69%| unknown
  5.4s|     1 |     0 |  8043 |     - |   235M |   0 |  32k|3276 |3281 |   7 |  1 |   2 |   0 | 1.546864e+06 | 2.256470e+06 |  45.87%| unknown
  5.7s|     1 |     0 |  8392 |     - |   236M |   0 |  32k|3276 |3288 |  14 |  2 |   2 |   0 | 1.557987e+06 | 2.256470e+06 |  44.83%| unknown
  6.2s|     1 |     0 |  8817 |     - |   236M |   0 |  32k|3276 |3292 |  18 |  3 |   2 |   0 | 1.578712e+06 | 2.256470e+06 |  42.93%| unknown
  6.4s|     1 |     0 |  8973 |     - |   237M |   0 |  32k|3276 |3294 |  20 |  4 |   2 |   0 | 1.600248e+06 | 2.256470e+06 |  41.01%| unknown
  6.7s|     1 |     0 |  9100 |     - |   238M |   0 |  32k|3276 |3298 |  24 |  5 |   2 |   0 | 1.608872e+06 | 2.256470e+06 |  40.25%| unknown
  7.1s|     1 |     0 |  9532 |     - |   239M |   0 |  32k|3276 |3304 |  30 |  6 |   2 |   0 | 1.635666e+06 | 2.256470e+06 |  37.95%| unknown
  7.8s|     1 |     0 |  9986 |     - |   239M |   0 |  32k|3276 |3308 |  34 |  7 |   2 |   0 | 1.647280e+06 | 2.256470e+06 |  36.98%| unknown
  8.2s|     1 |     0 | 10245 |     - |   240M |   0 |  32k|3276 |3312 |  38 |  8 |   2 |   0 | 1.653195e+06 | 2.256470e+06 |  36.49%| unknown
  8.7s|     1 |     0 | 10529 |     - |   241M |   0 |  32k|3276 |3316 |  42 |  9 |   2 |   0 | 1.656697e+06 | 2.256470e+06 |  36.20%| unknown
  9.1s|     1 |     0 | 10775 |     - |   241M |   0 |  32k|3276 |3319 |  45 | 10 |   2 |   0 | 1.658213e+06 | 2.256470e+06 |  36.08%| unknown
  9.5s|     1 |     0 | 11132 |     - |   242M |   0 |  32k|3276 |3322 |  48 | 11 |   2 |   0 | 1.663112e+06 | 2.256470e+06 |  35.68%| unknown
  9.9s|     1 |     0 | 11437 |     - |   244M |   0 |  32k|3276 |3324 |  50 | 12 |   2 |   0 | 1.663191e+06 | 2.256470e+06 |  35.67%| unknown
 10.2s|     1 |     0 | 11768 |     - |   245M |   0 |  32k|3276 |3327 |  53 | 13 |   2 |   0 | 1.663542e+06 | 2.256470e+06 |  35.64%| unknown
 time | node  | left  |LP iter|LP it/n|mem/heur|mdpt |vars |cons |rows |cuts |sepa|confs|strbr|  dualbound   | primalbound  |  gap   | compl. 
 10.9s|     1 |     0 | 12340 |     - |   245M |   0 |  32k|3276 |3332 |  58 | 14 |   2 |   0 | 1.670975e+06 | 2.256470e+06 |  35.04%| unknown
 11.4s|     1 |     0 | 12757 |     - |   247M |   0 |  32k|3276 |3333 |  60 | 15 |   2 |   0 | 1.671961e+06 | 2.256470e+06 |  34.96%| unknown
 12.0s|     1 |     0 | 13084 |     - |   249M |   0 |  32k|3276 |3336 |  63 | 16 |   2 |   0 | 1.674795e+06 | 2.256470e+06 |  34.73%| unknown
 12.5s|     1 |     0 | 13378 |     - |   249M |   0 |  32k|3276 |3339 |  66 | 17 |   2 |   0 | 1.674795e+06 | 2.256470e+06 |  34.73%| unknown
 13.2s|     1 |     0 | 13839 |     - |   250M |   0 |  32k|3276 |3342 |  69 | 18 |   2 |   0 | 1.677451e+06 | 2.256470e+06 |  34.52%| unknown
 13.6s|     1 |     0 | 13961 |     - |   250M |   0 |  32k|3276 |3344 |  71 | 19 |   2 |   0 | 1.677451e+06 | 2.256470e+06 |  34.52%| unknown
 14.1s|     1 |     0 | 14142 |     - |   252M |   0 |  32k|3276 |3346 |  73 | 20 |   2 |   0 | 1.677691e+06 | 2.256470e+06 |  34.50%| unknown
 14.5s|     1 |     0 | 14243 |     - |   256M |   0 |  32k|3276 |3342 |  75 | 21 |   2 |   0 | 1.677691e+06 | 2.256470e+06 |  34.50%| unknown
 14.9s|     1 |     0 | 14389 |     - |   256M |   0 |  32k|3276 |3344 |  77 | 22 |   2 |   0 | 1.677691e+06 | 2.256470e+06 |  34.50%| unknown
 15.4s|     1 |     0 | 14554 |     - |   256M |   0 |  32k|3276 |3346 |  79 | 23 |   2 |   0 | 1.677713e+06 | 2.256470e+06 |  34.50%| unknown
 16.0s|     1 |     0 | 15041 |     - |   259M |   0 |  32k|3276 |3349 |  82 | 24 |   2 |   0 | 1.678811e+06 | 2.256470e+06 |  34.41%| unknown
 16.6s|     1 |     0 | 15415 |     - |   259M |   0 |  32k|3276 |3352 |  85 | 25 |   2 |   0 | 1.679466e+06 | 2.256470e+06 |  34.36%| unknown
 17.1s|     1 |     0 | 15655 |     - |   260M |   0 |  32k|3276 |3355 |  88 | 26 |   2 |   0 | 1.679854e+06 | 2.256470e+06 |  34.33%| unknown
 17.6s|     1 |     0 | 15860 |     - |   262M |   0 |  32k|3276 |3350 |  91 | 27 |   2 |   0 | 1.680334e+06 | 2.256470e+06 |  34.29%| unknown
 18.0s|     1 |     0 | 16049 |     - |   264M |   0 |  32k|3276 |3353 |  94 | 28 |   2 |   0 | 1.680374e+06 | 2.256470e+06 |  34.28%| unknown
 time | node  | left  |LP iter|LP it/n|mem/heur|mdpt |vars |cons |rows |cuts |sepa|confs|strbr|  dualbound   | primalbound  |  gap   | compl. 
 18.5s|     1 |     0 | 16324 |     - |   264M |   0 |  32k|3276 |3357 |  98 | 29 |   2 |   0 | 1.680468e+06 | 2.256470e+06 |  34.28%| unknown
 18.9s|     1 |     0 | 16457 |     - |   265M |   0 |  32k|3276 |3360 | 101 | 30 |   2 |   0 | 1.680514e+06 | 2.256470e+06 |  34.27%| unknown
 19.3s|     1 |     0 | 16594 |     - |   267M |   0 |  32k|3276 |3362 | 103 | 31 |   2 |   0 | 1.680514e+06 | 2.256470e+06 |  34.27%| unknown
 19.7s|     1 |     0 | 16807 |     - |   267M |   0 |  32k|3276 |3365 | 106 | 32 |   2 |   0 | 1.680514e+06 | 2.256470e+06 |  34.27%| unknown
 20.2s|     1 |     0 | 17038 |     - |   270M |   0 |  32k|3276 |3360 | 108 | 33 |   2 |   0 | 1.680518e+06 | 2.256470e+06 |  34.27%| unknown
 20.6s|     1 |     0 | 17206 |     - |   272M |   0 |  32k|3276 |3362 | 110 | 34 |   2 |   0 | 1.680527e+06 | 2.256470e+06 |  34.27%| unknown
 21.1s|     1 |     0 | 17426 |     - |   272M |   0 |  32k|3276 |3365 | 113 | 35 |   2 |   0 | 1.680535e+06 | 2.256470e+06 |  34.27%| unknown
 21.5s|     1 |     0 | 17633 |     - |   273M |   0 |  32k|3276 |3368 | 116 | 36 |   2 |   0 | 1.680717e+06 | 2.256470e+06 |  34.26%| unknown
 21.9s|     1 |     0 | 17680 |     - |   274M |   0 |  32k|3276 |3370 | 118 | 37 |   2 |   0 | 1.680717e+06 | 2.256470e+06 |  34.26%| unknown
 22.3s|     1 |     0 | 17743 |     - |   278M |   0 |  32k|3276 |3371 | 119 | 38 |   2 |   0 | 1.680717e+06 | 2.256470e+06 |  34.26%| unknown
 22.7s|     1 |     0 | 17788 |     - |   279M |   0 |  32k|3276 |3359 | 120 | 39 |   2 |   0 | 1.680717e+06 | 2.256470e+06 |  34.26%| unknown
 23.1s|     1 |     0 | 17843 |     - |   279M |   0 |  32k|3276 |3360 | 121 | 40 |   2 |   0 | 1.680717e+06 | 2.256470e+06 |  34.26%| unknown
 23.5s|     1 |     0 | 17898 |     - |   281M |   0 |  32k|3276 |3361 | 122 | 41 |   2 |   0 | 1.680717e+06 | 2.256470e+06 |  34.26%| unknown
 23.9s|     1 |     0 | 17933 |     - |   282M |   0 |  32k|3276 |3362 | 123 | 42 |   2 |   0 | 1.680717e+06 | 2.256470e+06 |  34.26%| unknown
 24.3s|     1 |     0 | 18000 |     - |   283M |   0 |  32k|3276 |3363 | 124 | 43 |   2 |   0 | 1.680717e+06 | 2.256470e+06 |  34.26%| unknown
 time | node  | left  |LP iter|LP it/n|mem/heur|mdpt |vars |cons |rows |cuts |sepa|confs|strbr|  dualbound   | primalbound  |  gap   | compl. 
 24.7s|     1 |     0 | 18048 |     - |   285M |   0 |  32k|3276 |3364 | 125 | 44 |   2 |   0 | 1.680717e+06 | 2.256470e+06 |  34.26%| unknown
 25.1s|     1 |     0 | 18106 |     - |   286M |   0 |  32k|3276 |3356 | 126 | 45 |   2 |   0 | 1.680717e+06 | 2.256470e+06 |  34.26%| unknown
 25.6s|     1 |     0 | 18191 |     - |   287M |   0 |  32k|3276 |3357 | 127 | 46 |   2 |   0 | 1.680717e+06 | 2.256470e+06 |  34.26%| unknown
o27.1s|     1 |     0 | 26570 |     - |feaspump|   0 |  32k|3276 |3357 | 127 | 46 |   2 |   0 | 1.680717e+06 | 2.029727e+06 |  20.77%| unknown
d28.1s|     1 |     0 | 28746 |     - |conflict|   0 |  32k|3276 |3357 |   0 | 46 |   2 |   0 | 1.680717e+06 | 1.825591e+06 |   8.62%| unknown
 30.8s|     1 |     0 | 28746 |     - |   291M |   0 |  32k|3276 |3357 | 127 | 46 |   2 |   0 | 1.680717e+06 | 1.825591e+06 |   8.62%| unknown
 31.3s|     1 |     0 | 28793 |     - |   294M |   0 |  32k|3276 |3358 | 128 | 47 |   2 |   0 | 1.680717e+06 | 1.825591e+06 |   8.62%| unknown
 31.5s|     1 |     0 | 29001 |     - |   294M |   0 |  32k|3276 |3360 | 130 | 48 |   2 |   0 | 1.681538e+06 | 1.825591e+06 |   8.57%| unknown
 35.6s|     1 |     0 | 29317 |     - |   296M |   0 |  32k|3276 |3360 | 130 | 48 |  34 |   8 | 1.688745e+06 | 1.825591e+06 |   8.10%| unknown
 36.1s|     1 |     0 | 29705 |     - |   296M |   0 |  32k|3276 |3362 | 132 | 49 |  34 |   8 | 1.688745e+06 | 1.825591e+06 |   8.10%| unknown
 36.2s|     1 |     0 | 29705 |     - |   296M |   0 |  32k|3276 |3362 | 132 | 49 |  34 |   8 | 1.688745e+06 | 1.825591e+06 |   8.10%| unknown
 36.4s|     1 |     0 | 30012 |     - |   296M |   0 |  32k|3276 |3365 | 135 | 50 |  34 |   8 | 1.688745e+06 | 1.825591e+06 |   8.10%| unknown
 36.5s|     1 |     0 | 30012 |     - |   296M |   0 |  32k|3212 |3365 | 135 | 50 |  34 |   8 | 1.688745e+06 | 1.825591e+06 |   8.10%| unknown
 36.9s|     1 |     0 | 30152 |     - |   296M |   0 |  32k|3212 |3360 | 137 | 51 |  34 |   8 | 1.688745e+06 | 1.825591e+06 |   8.10%| unknown
 37.1s|     1 |     0 | 30409 |     - |   296M |   0 |  32k|3212 |3362 | 139 | 52 |  34 |   8 | 1.688745e+06 | 1.825591e+06 |   8.10%| unknown
 time | node  | left  |LP iter|LP it/n|mem/heur|mdpt |vars |cons |rows |cuts |sepa|confs|strbr|  dualbound   | primalbound  |  gap   | compl. 
 37.6s|     1 |     0 | 30474 |     - |   296M |   0 |  32k|3212 |3362 | 139 | 52 |  59 |  10 | 1.688745e+06 | 1.825591e+06 |   8.10%| unknown
 38.0s|     1 |     0 | 30654 |     - |   300M |   0 |  32k|3212 |3364 | 141 | 53 |  59 |  10 | 1.688745e+06 | 1.825591e+06 |   8.10%| unknown
 38.2s|     1 |     0 | 30855 |     - |   300M |   0 |  32k|3212 |3366 | 143 | 54 |  59 |  10 | 1.689721e+06 | 1.825591e+06 |   8.04%| unknown
 38.2s|     1 |     2 | 30855 |     - |   300M |   0 |  32k|3212 |3366 | 143 | 54 |  59 |  10 | 1.689721e+06 | 1.825591e+06 |   8.04%| unknown
(run 1, node 1) restarting after 3 global fixings of integer variables

(restart) converted 92 cuts from the global cut pool into linear constraints

presolving:
(round 1, fast)       1923 del vars, 130 del conss, 0 add conss, 1280 chg bounds, 0 chg sides, 0 chg coeffs, 0 upgd conss, 32000 impls, 1 clqs
presolving (2 rounds: 2 fast, 1 medium, 1 exhaustive):
 1923 deleted vars, 131 deleted constraints, 0 added constraints, 1280 tightened bounds, 0 added holes, 0 changed sides, 0 changed coefficients
 32000 implications, 1 cliques
presolved problem has 30127 variables (47 bin, 0 int, 0 impl, 30080 cont) and 3173 constraints
      1 constraints of type <setppc>
   3172 constraints of type <linear>
Presolving Time: 0.67
transformed 3/4 original solutions to the transformed problem space

 time | node  | left  |LP iter|LP it/n|mem/heur|mdpt |vars |cons |rows |cuts |sepa|confs|strbr|  dualbound   | primalbound  |  gap   | compl. 
 43.6s|     1 |     0 | 44534 |     - |   282M |   0 |  30k|3173 |3172 |   0 |  0 |  59 |  10 | 1.689721e+06 | 1.825591e+06 |   8.04%| unknown
 44.1s|     1 |     0 | 44640 |     - |   284M |   0 |  30k|3173 |3174 |   2 |  1 |  59 |  10 | 1.689721e+06 | 1.825591e+06 |   8.04%| unknown
 44.5s|     1 |     0 | 44746 |     - |   285M |   0 |  30k|3173 |3176 |   4 |  2 |  59 |  10 | 1.689739e+06 | 1.825591e+06 |   8.04%| unknown
 44.9s|     1 |     0 | 44836 |     - |   286M |   0 |  30k|3173 |3178 |   6 |  3 |  59 |  10 | 1.689739e+06 | 1.825591e+06 |   8.04%| unknown
 45.3s|     1 |     0 | 44977 |     - |   286M |   0 |  30k|3173 |3180 |   8 |  4 |  59 |  10 | 1.689759e+06 | 1.825591e+06 |   8.04%| unknown
 45.7s|     1 |     0 | 45030 |     - |   287M |   0 |  30k|3173 |3181 |   9 |  5 |  59 |  10 | 1.689759e+06 | 1.825591e+06 |   8.04%| unknown
 46.1s|     1 |     0 | 45080 |     - |   288M |   0 |  30k|3173 |3183 |  11 |  6 |  59 |  10 | 1.689759e+06 | 1.825591e+06 |   8.04%| unknown
 46.6s|     1 |     0 | 45126 |     - |   288M |   0 |  30k|3173 |3184 |  12 |  7 |  59 |  10 | 1.689759e+06 | 1.825591e+06 |   8.04%| unknown
 47.1s|     1 |     0 | 45234 |     - |   288M |   0 |  30k|3173 |3186 |  14 |  8 |  59 |  10 | 1.689759e+06 | 1.825591e+06 |   8.04%| unknown
 47.5s|     1 |     0 | 45315 |     - |   289M |   0 |  30k|3173 |3187 |  15 |  9 |  59 |  10 | 1.689759e+06 | 1.825591e+06 |   8.04%| unknown
 48.0s|     1 |     0 | 45427 |     - |   291M |   0 |  30k|3173 |3189 |  17 | 10 |  59 |  10 | 1.689761e+06 | 1.825591e+06 |   8.04%| unknown
 48.4s|     1 |     0 | 45508 |     - |   291M |   0 |  30k|3173 |3191 |  19 | 11 |  59 |  10 | 1.689761e+06 | 1.825591e+06 |   8.04%| unknown
 55.9s|     1 |     0 | 50730 |     - |   293M |   0 |  30k|3175 |3191 |  19 | 11 |  69 |  18 | 1.696582e+06 | 1.825591e+06 |   7.60%| unknown
 56.3s|     1 |     0 | 50917 |     - |   293M |   0 |  30k|3175 |3194 |  22 | 12 |  69 |  18 | 1.696582e+06 | 1.825591e+06 |   7.60%| unknown
 56.5s|     1 |     0 | 51095 |     - |   293M |   0 |  30k|3175 |3196 |  24 | 13 |  69 |  18 | 1.696582e+06 | 1.825591e+06 |   7.60%| unknown
 time | node  | left  |LP iter|LP it/n|mem/heur|mdpt |vars |cons |rows |cuts |sepa|confs|strbr|  dualbound   | primalbound  |  gap   | compl. 
 56.9s|     1 |     0 | 51096 |     - |   293M |   0 |  30k|3175 |3196 |  24 | 13 |  81 |  20 | 1.696582e+06 | 1.825591e+06 |   7.60%| unknown
 57.5s|     1 |     0 | 51483 |     - |   294M |   0 |  30k|3175 |3199 |  27 | 14 |  81 |  20 | 1.696582e+06 | 1.825591e+06 |   7.60%| unknown
 57.6s|     1 |     0 | 51586 |     - |   294M |   0 |  30k|3175 |3173 |  28 | 15 |  81 |  20 | 1.696582e+06 | 1.825591e+06 |   7.60%| unknown
 57.9s|     1 |     2 | 51586 |     - |   294M |   0 |  30k|3175 |3173 |  28 | 15 |  81 |  21 | 1.696582e+06 | 1.825591e+06 |   7.60%| unknown

SCIP Status        : problem is solved [optimal solution found]
Solving Time (sec) : 68.93
Solving Nodes      : 9 (total of 10 nodes in 2 runs)
Primal Bound       : +1.82559100000000e+06 (5 solutions)
Dual Bound         : +1.82559100000000e+06
Gap                : 0.00 %
Solve Status: optimal
Solve Time: 68.95 seconds
